;; Mutation-Based Equivalence Benchmark
;; Source:     AutomatArk / instance04637.smt2
;; Mutations:  range_shrink_hi, literal_char_dec
;; Status:     sat
;;
;; Original regex vs mutated regex
;; Equivalence check: unsat ⟺ L(R1) = L(R2)

(set-info :smt-lib-version 2.6)
(set-info :category "mutation")
(set-info :status sat)
(set-logic QF_S)


;; R1: original
;; R2: mutated (range_shrink_hi, literal_char_dec)
(assert
  (not
    (=
      (re.++ (str.to_re "Logger") (re.+ (re.union (re.range "0" "9") (re.range "A" "Z") (re.range "a" "z") (str.to_re "_"))) (str.to_re "gdvsotuqwsg/dxt.hd") (re.range "0" "9") (str.to_re "ovplLogtraffbest.bizAdToolsLoggedsidesearch.dropspam.com\u{a}"))
      (re.++ (str.to_re "Loggeq") (re.+ (re.union (re.range "0" "9") (re.range "A" "Y") (re.range "a" "z") (str.to_re "_"))) (str.to_re "gdvsotuqwsg/dxt.hd") (re.range "0" "9") (str.to_re "ovplLogtraffbest.bizAdToolsLoggedsidesearch.dropspam.com\u{a}")))))

(check-sat)
(exit)
